 vasp.5.2.2 15Apr09 complex
 executed on             LinuxIFC date 2011.06.27  01:00:03

 INCAR:
 POTCAR:    US Cd
 POTCAR:    US Se
 POTCAR:    US P
 POTCAR:    US C
 POTCAR:    US O
 POTCAR:    US H
 POTCAR:    US Cd
   VRHFIN =Cd : s2 d10
   TITEL  = US Cd
   POMASS =  112.411; ZVAL   =   12.000    mass and valenz
   ENMAX  =  167.929; ENMIN  =  125.946 eV

   QCUT   =   -3.513; QGAM   =    7.026    optimization parameters

   Description
     l     E      TYP  RCUT    TYP  RCUT
     2   .000      7  2.420    23  2.980
     2   .000      7  2.420    23  2.980
     0   .000     15  2.660    23  2.660
     0   .000     15  2.660    23  2.660
     1  -.200     15  2.660    23  2.980
     1   .000     15  2.660    23  2.980
     3   .000      7   .000     0   .000

 POTCAR:    US Se
   VRHFIN =Se: s2p4
   TITEL  = US Se
   POMASS =   78.960; ZVAL   =    6.000    mass and valenz
   ENMAX  =  155.175; ENMIN  =  116.381 eV

[...]

 POTCAR:    US P
   VRHFIN =P : s2p3
   TITEL  = US P
   POMASS =   30.974; ZVAL   =    5.000    mass and valenz
   ENMAX  =  173.498; ENMIN  =  130.123 eV

[...]

 POTCAR:    US C
   VRHFIN =C: s2p2
   TITEL  = US C
   POMASS =   12.011; ZVAL   =    4.000    mass and valenz
   ENMAX  =  286.744; ENMIN  =  215.058 eV

[...]

 POTCAR:    US O
   VRHFIN =O: s2p4
   TITEL  = US O
   POMASS =   16.000; ZVAL   =    6.000    mass and valenz
   ENMAX  =  395.994; ENMIN  =  296.995 eV

[...]

 POTCAR:    US H
   VRHFIN =H: ultrasoft test
   TITEL  = US H
   POMASS =    1.000; ZVAL   =    1.000    mass and valenz
   ENMAX  =  200.000; ENMIN  =  200.000 eV  200 eV set by hand

   QCUT   =   -3.834; QGAM   =    7.668    optimization parameters

   Description
     l     E      TYP  RCUT    TYP  RCUT
     0   .000     15   .800    23  1.250
     0   .500     15   .800    23  1.250
     1  -.200     15   .800    23  1.250

 Optimization of the real space projectors (new method)

 maximal supplied QI-value         = 12.66
 optimisation between [QCUT,QGAM] = [  8.86, 17.73] = [ 22.00, 87.98] Ry
 Optimized for a Real-space Cutoff    1.96 Angstroem

   l    n(q)    QCUT    max X(q) W(low)/X(q) W(high)/X(q)  e(spline)
   2      9     8.863     8.992    0.11E-03    0.37E-04    0.16E-06
   2      9     8.863     1.780    0.16E-03    0.52E-04    0.19E-06
   0     10     8.863    13.960    0.22E-04    0.29E-05    0.76E-07
   0     10     8.863     3.344    0.53E-04    0.28E-05    0.11E-06
   1     10     8.863     6.276    0.36E-04    0.46E-04    0.80E-07
   1     10     8.863     1.674    0.62E-04    0.74E-04    0.12E-06
 Optimization of the real space projectors (new method)

[...]

   l    n(q)    QCUT    max X(q) W(low)/X(q) W(high)/X(q)  e(spline)
   0     10     8.776     2.154    0.71E-04    0.71E-04    0.47E-06
   0     10     8.776     3.268    0.75E-04    0.55E-04    0.73E-06
   1     10     8.776     4.382    0.13E-03    0.32E-03    0.49E-06
   1     10     8.776     0.177    0.20E-03    0.48E-03    0.63E-06
 Optimization of the real space projectors (new method)

 maximal supplied QI-value         = 30.24
 optimisation between [QCUT,QGAM] = [  8.77, 17.54] = [ 21.53, 86.12] Ry
 Optimized for a Real-space Cutoff    1.79 Angstroem

   l    n(q)    QCUT    max X(q) W(low)/X(q) W(high)/X(q)  e(spline)
   0      9     8.768     1.240    0.12E-03    0.35E-03    0.47E-06
   0      9     8.768     0.155    0.19E-03    0.51E-03    0.57E-06
   1      9     8.768     0.746    0.17E-04    0.12E-03    0.68E-06
  US Cd                                 :
  US Se                                 :
  US P                                  :
  US C                                  :
  US O                                  :
  US H                                  :

 POSCAR: CdSe
  positions in direct lattice
 exchange correlation table for  LEXCH =        7
   RHO(1)=    0.500       N(1)  =     2000
   RHO(2)=  100.500       N(2)  =     4000

 ion  position               nearest neighbor table
   1  0.194  0.957  0.078-  65 2.04  66 2.15   7 2.38  64 2.48  19 2.83  32 3.53
   2  0.801  0.023  0.014-  35 1.93  34 1.96  36 2.45   3 2.85   4 3.02  10 3.07  41 3.11   6 3.24

   3  0.824  0.996  0.135-  39 2.03  41 2.11  35 2.31   6 2.49   2 2.85  14 3.54  15 3.70
   4  0.865  0.018  0.913-  36 2.11  42 2.25  34 2.47  13 2.86  43 2.92  10 3.01   2 3.02  12 3.30

   5  0.880  0.153  0.014-  37 1.98  36 2.12  38 2.42   8 2.60   6 2.95  13 3.17
   6  0.852  0.088  0.118-  39 2.00  37 2.13   3 2.49  35 2.68  44 2.73   5 2.95  36 3.21   2 3.24
                            15 3.36  13 3.64
   7  0.208  0.029  0.009-  66 2.01  69 2.11  65 2.16   1 2.38  59 2.51  67 3.09  32 3.28  19 3.61

[...]

  11  0.866  0.851  0.083-  40 2.03  41 2.14  51 2.39  21 2.60  10 2.71  14 3.40
  12  0.954  0.954  0.889-  43 1.96  42 2.23  52 2.44  16 2.85  23 3.11   4 3.30  13 3.46  26 3.48
                            22 3.78
  13  0.926  0.041  0.004-  44 1.88  43 2.22  47 2.57  36 2.59   4 2.86   5 3.17  16 3.22  14 3.23
                            42 3.45  12 3.46  18 3.56   6 3.64
  14  0.929  0.957  0.116-  45 1.92  44 2.21  54 2.56  15 2.58  41 2.70  43 3.16  13 3.23  25 3.32
                            11 3.40  23 3.52   3 3.54
  15  0.928  0.028  0.200-  45 2.14  49 2.42  44 2.45  14 2.58  39 2.72  18 3.26   6 3.36   3 3.70
                            25 3.74
  16  0.986  0.060  0.889-  47 1.91  42 2.46  55 2.61  12 2.85  26 3.10  13 3.22  17 3.48  30 3.49
                            27 3.72
  17  0.005  0.167  0.986-  48 2.12  47 2.21  38 2.52  50 2.55   8 2.98  30 3.46  16 3.48  18 3.53
                            31 3.76  27 3.78
  18  0.999  0.084  0.116-  49 1.94  48 2.23  44 2.61  57 2.64  29 2.84  47 3.17  15 3.26  20 3.32
                             8 3.34  27 3.49  17 3.53  13 3.56
  19  0.143  0.912  0.987-  64 2.11  63 2.16  65 2.62  56 2.67   1 2.83  33 3.34  22 3.53   7 3.61

  20  0.087  0.153  0.134-  46 2.09  48 2.44  60 2.57  32 2.70  31 2.95  57 3.01  29 3.15  18 3.32

  21  0.926  0.815  0.014-  51 1.94  53 2.51  11 2.60  40 2.69  24 3.25  23 3.41  10 3.59
  22  0.051  0.871  0.912-  52 2.08  53 2.37  63 2.51  56 2.64  33 2.73  23 2.79  26 2.82  19 3.53
                            12 3.78
  23  0.000  0.913  0.004-  54 1.88  53 2.17  43 2.57  56 2.60  22 2.79  12 3.11  24 3.39  33 3.40
                            21 3.41  52 3.46  28 3.51  14 3.52  26 3.61
  24  0.996  0.824  0.120-  62 2.14  54 2.30  51 2.58  61 2.62  25 3.07   9 3.16  21 3.25  53 3.29
                            23 3.39  33 3.44
  25  0.009  0.921  0.203-  62 2.21  54 2.54  58 2.59  45 2.67  28 2.87  24 3.07  14 3.32  29 3.52
                             9 3.56  15 3.74
  26  0.060  0.981  0.889-  56 1.92  55 2.08  52 2.29  22 2.82  27 2.96  16 3.10  30 3.28  12 3.48
                            23 3.61
  27  0.070  0.041  0.004-  57 1.88  56 2.17  59 2.59  47 2.63  30 2.65  26 2.96  28 3.23  31 3.25
                            55 3.45  18 3.49  32 3.69  16 3.72  17 3.78
  28  0.070  0.958  0.116-  58 1.94  57 2.16  64 2.48  54 2.61  25 2.87   9 2.88  29 2.89  56 3.18
                            27 3.23  23 3.51
  29  0.060  0.046  0.200-  58 2.16  57 2.46  46 2.49  49 2.59  18 2.84  28 2.89  20 3.15  32 3.50
                            25 3.52
  30  0.088  0.106  0.912-  55 2.04  50 2.11  59 2.34  27 2.65  31 2.67  47 3.26  26 3.28  17 3.46
                            16 3.49
  31  0.121  0.153  0.010-  60 2.03  50 2.16  59 2.22  30 2.67  20 2.95  32 3.08  27 3.25  17 3.76

  32  0.149  0.082  0.116-  46 2.07  60 2.22  66 2.53  20 2.70  57 2.72  31 3.08  59 3.16   7 3.28
                            29 3.50   1 3.53  27 3.69
  33  0.074  0.815  0.014-  61 1.88  63 2.20  53 2.66  22 2.73   9 2.84  64 3.18  19 3.34  23 3.40
                            24 3.44
  34  0.800  0.973  0.945-   2 1.96  10 2.34   4 2.47
  35  0.776  0.051  0.087-   2 1.93   3 2.31   6 2.68
  36  0.855  0.083  0.973-   4 2.11   5 2.12   2 2.45  13 2.59   6 3.21
  37  0.859  0.170  0.096-   5 1.98   6 2.13   8 2.66
  38  0.936  0.215  0.996-   8 1.97   5 2.42  17 2.52
  39  0.844  0.050  0.197-   6 2.00   3 2.03  15 2.72
  40  0.844  0.837  0.998-  11 2.03  10 2.13  21 2.69  41 3.07
  41  0.850  0.935  0.082-  10 2.04   3 2.11  11 2.14  14 2.70  40 3.07   2 3.11
  42  0.920  0.023  0.849-  12 2.23   4 2.25  16 2.46  13 3.45
  43  0.931  0.957  0.972-  12 1.96  13 2.22  23 2.57  10 2.73   4 2.92  14 3.16
  44  0.927  0.042  0.090-  13 1.88  14 2.21  15 2.45  18 2.61   6 2.73
  45  0.928  0.943  0.202-  14 1.92  15 2.14  25 2.67
  46  0.122  0.107  0.196-  32 2.07  20 2.09  29 2.49  60 3.10
  47  0.997  0.080  0.972-  16 1.91  17 2.21  13 2.57  27 2.63  18 3.17  30 3.26
  48  0.021  0.162  0.080-  17 2.12  18 2.23  20 2.44   8 2.67
  49  0.986  0.089  0.201-  18 1.94  15 2.42  29 2.59
  50  0.078  0.185  0.944-  30 2.11  31 2.16  17 2.55
  51  0.922  0.789  0.097-  21 1.94  11 2.39  24 2.58
  52  0.019  0.916  0.849-  22 2.08  26 2.29  12 2.44  23 3.46
  53  0.997  0.831  0.971-  23 2.17  22 2.37  21 2.51  33 2.66  24 3.29
  54  0.999  0.912  0.089-  23 1.88  24 2.30  25 2.54  14 2.56  28 2.61
  55  0.062  0.056  0.848-  30 2.04  26 2.08  16 2.61  27 3.45
  56  0.069  0.959  0.972-  26 1.92  27 2.17  23 2.60  22 2.64  19 2.67  28 3.18
  57  0.073  0.041  0.089-  27 1.88  28 2.16  29 2.46  18 2.64  32 2.72  20 3.01  58 3.13
  58  0.083  0.965  0.202-  28 1.94  29 2.16  25 2.59  57 3.13   9 3.30
  59  0.143  0.076  0.973-  31 2.22  30 2.34   7 2.51  27 2.59  32 3.16
  60  0.159  0.165  0.083-  31 2.03  32 2.22  20 2.57  46 3.10
  61  0.066  0.779  0.088-  33 1.88   9 2.17  24 2.62  62 3.01
  62  0.035  0.839  0.197-  24 2.14  25 2.21   9 2.30  61 3.01
  63  0.121  0.838  0.947-  19 2.16  33 2.20  22 2.51
  64  0.129  0.903  0.080-  19 2.11   9 2.18  28 2.48   1 2.48  33 3.18
  65  0.221  0.945  0.995-   1 2.04   7 2.16  19 2.62
  66  0.219  0.035  0.099-   7 2.01   1 2.15  32 2.53
  67  0.277  0.114  0.014-  70 1.23  69 1.26  71 1.49  72 1.67  68 1.72   7 3.09
  68  0.324  0.139  0.988-  76 0.87  74 0.93  75 1.06  67 1.72
  69  0.261  0.074  0.987-  67 1.26   7 2.11
  70  0.293  0.102  0.062-  72 0.92  67 1.23
  71  0.242  0.153  0.017-  73 0.92  67 1.49
  72  0.274  0.077  0.077-  70 0.92  67 1.67
  73  0.219  0.153  0.042-  71 0.92
  74  0.337  0.166  0.009-  68 0.93
  75  0.350  0.113  0.982-  68 1.06
  76  0.314  0.153  0.955-  68 0.87

  LATTYP: Found a simple orthorhombic cell.
 ALAT       =    22.0000000000
 B/A-ratio  =     1.1363636364
 C/A-ratio  =     1.4545454545

  Lattice vectors:

 A1 = (   0.0000000000,   0.0000000000, -22.0000000000)
 A2 = (   0.0000000000, -25.0000000000,   0.0000000000)
 A3 = ( -32.0000000000,   0.0000000000,   0.0000000000)
 Subroutine PRICEL returns:
 Original cell was already a primitive cell.

Analysis of symmetry for initial positions (statically):

 Routine SETGRP: Setting up the symmetry group for a
 simple orthorhombic supercell.

 Subroutine GETGRP returns: Found  1 space group operations
 (whereof  1 operations were pure point group operations)
 out of a pool of  8 trial point group operations.

The static configuration has the point symmetry C_1 .

[...]

  length of vectors
    32.000000000 25.000000000 22.000000000     0.031250000  0.040000000  0.045454545

 FORCES acting on ions
    electron-ion (+dipol)            ewald-force                    non-local-force                 convergence-correction
   -.642E+01 -.177E+01 0.787E+01   -.169E+02 0.366E+02 -.367E+01   0.103E+02 -.991E+01 0.354E+02   -.356E+00 -.110E+00 0.293E+00
   0.300E+02 -.333E+01 -.542E+01   -.428E+01 0.223E+02 0.334E+02   0.534E+02 0.324E+02 -.353E+02   0.236E+00 0.183E+00 0.565E+00
   0.804E+01 0.105E+02 -.314E+00   -.494E+02 -.664E+01 0.152E+02   0.188E+02 0.294E+02 0.387E+02   0.496E-01 -.686E-01 -.553E+00
   0.507E+01 0.112E+02 0.662E+01   -.402E+02 -.211E+02 -.109E+02   -.119E+01 0.570E+01 -.333E+02   0.490E-01 0.334E+00 -.203E+00
   -.929E+01 -.560E-01 -.957E+00   0.193E+02 0.624E+01 0.545E+01   0.118E+01 -.180E+02 -.861E+01   0.635E-01 -.250E+00 -.334E-01
   0.441E+01 -.113E+02 -.129E+01   -.681E+02 -.113E+02 0.268E+02   0.291E+02 0.164E+02 0.232E+01   -.380E+00 0.160E-01 0.237E+00
   -.378E+02 -.138E+02 0.623E+01   0.126E+03 0.127E+02 -.429E+02   -.405E+02 -.211E+02 0.195E+02   -.354E+00 -.120E+00 0.354E+00
   0.537E+01 -.267E+01 -.106E+00   -.267E+02 -.375E+02 0.340E+01   -.611E+01 0.204E+02 -.180E+02   -.328E+00 -.158E+00 -.583E+00
   0.301E+02 -.113E+02 -.142E+02   -.830E+02 0.611E+02 0.104E+02   0.189E+02 0.567E+01 -.538E+02   0.954E-01 -.120E+00 0.166E+00
   -.870E+01 0.930E+01 -.156E+02   0.562E+02 0.499E+01 0.771E+02   0.875E+02 0.221E+02 0.477E+02   0.388E+00 0.153E-01 0.745E+00
   -.285E+01 0.306E+01 -.111E+02   0.276E+02 -.124E+02 0.368E+02   -.249E+02 0.137E+02 0.435E+01   0.205E+00 -.225E+00 -.541E+00
   0.276E+01 -.948E+01 -.285E+02   -.131E+02 0.200E+02 0.901E+02   -.139E+02 -.572E+00 -.297E+02   0.136E+00 -.210E+00 0.244E+00
   0.574E+01 0.250E+01 -.235E+01   0.235E+02 0.130E+02 0.441E+02   -.640E+01 -.124E+02 -.331E+02   -.162E+00 0.397E-01 -.315E+00
   -.937E+01 0.122E+02 -.268E+01   0.438E+02 0.547E+01 -.964E+01   0.147E+02 0.161E+02 -.738E+01   0.173E+00 -.142E+00 -.991E-01
   -.147E+02 -.889E+01 -.738E+01   0.279E+02 0.200E+02 0.188E+02   -.866E+02 -.323E+02 -.722E+02   -.313E+00 0.392E+00 -.132E+00
   -.102E+02 -.178E+02 0.852E+01   0.521E+02 0.748E+02 0.337E+02   -.281E-01 -.945E+01 0.389E+02   -.710E-02 0.494E+00 -.282E-01
   0.110E+02 -.207E+02 0.181E+01   -.145E+02 0.220E+02 -.378E+01   0.432E+01 -.127E+02 0.369E+01   0.209E+00 0.316E+00 -.108E+00
   0.343E+01 -.819E+01 0.208E+02   -.121E+02 0.236E+02 -.592E+02   0.189E+02 0.410E+01 0.128E+03   0.946E-01 0.259E+00 0.171E+00
   0.175E+02 0.477E+01 0.212E+02   -.177E+02 -.526E+02 -.877E+02   -.612E+02 -.260E+02 -.792E+02   0.135E+00 0.469E+00 0.674E+00
   -.102E+02 -.234E+01 -.399E+01   -.961E+01 -.253E+02 -.505E+01   -.133E+02 -.137E+02 -.253E+01   0.453E-01 -.464E-02 -.622E-01
   -.590E+01 0.909E+01 -.519E+01   -.248E+02 0.321E+02 -.447E+02   -.231E+02 -.219E+02 0.165E+02   -.306E+00 -.897E-01 -.108E+00
   0.157E+02 0.160E+02 0.114E+02   -.545E+02 -.464E+02 -.221E+02   0.147E+02 0.258E+02 0.247E+02   0.219E+00 0.668E-01 0.505E+00
   0.156E+01 -.807E+01 0.144E+02   -.172E+02 0.288E+02 -.262E+02   0.421E+01 -.133E+02 0.415E+02   0.160E+00 0.471E+00 0.741E-01
   -.910E+01 -.217E+01 0.589E+01   0.104E+02 0.501E+02 -.868E+01   0.526E+01 -.158E+02 -.324E+01   0.281E-01 0.199E+00 0.100E+00
   0.572E+01 0.205E+01 -.215E+00   -.182E+02 0.537E+01 -.102E+02   -.107E+02 0.459E+01 -.116E+01   -.126E+00 0.805E-01 0.846E-01
   -.269E+02 -.916E+01 -.792E+01   0.355E+02 0.412E+02 0.205E+02   -.178E+02 -.129E+02 -.217E+02   -.112E+00 -.339E+00 -.226E-01
   0.134E+02 0.192E+02 -.111E+02   0.445E+01 -.186E+02 0.383E+02   0.423E+01 0.657E+01 -.210E+01   0.343E+00 0.662E-01 0.330E+00
   -.201E+02 0.131E+02 -.499E+00   0.238E+02 -.583E+02 0.260E+00   0.247E+01 0.850E+01 -.285E+01   -.208E+00 0.314E+00 0.384E-01
   0.616E+01 0.125E+02 -.640E+01   -.272E+02 -.338E+02 0.410E+01   -.101E+02 0.968E+00 -.350E+01   0.266E+00 -.205E+00 -.280E+00
   0.121E+02 -.334E+01 0.621E+01   0.814E+01 -.303E+02 -.506E+02   0.252E+01 -.392E+01 0.130E+01   -.244E+00 0.208E+00 -.131E+00
   -.234E+02 0.106E+02 -.821E+01   0.759E+02 -.263E+02 0.264E+02   0.784E+01 0.266E+01 -.205E+01   0.297E+00 0.321E+00 0.713E+00
   0.975E+01 0.563E+01 0.883E+01   -.910E+00 -.389E+01 -.485E+02   -.158E+01 -.188E+01 0.623E+01   -.436E-01 -.219E+00 -.310E+00
   -.976E+01 0.156E+02 0.744E+01   -.992E+01 -.729E+02 -.368E+02   0.929E+01 0.131E+02 0.660E+00   -.244E+00 -.222E+00 -.434E+00
   -.526E+01 0.719E+00 0.431E+01   -.954E+01 0.122E+02 -.412E+01   0.381E-01 0.151E-01 -.625E-01   -.306E-01 -.286E+00 -.504E-01
   0.626E+01 0.767E+01 -.614E+01   -.633E+01 -.271E+01 0.265E+02   -.176E+00 -.110E+00 0.118E+00   -.174E+00 -.201E+00 0.367E+00
   -.116E+02 -.191E+00 0.565E+01   0.226E+02 -.193E+02 -.227E+02   -.150E-01 -.269E-03 -.137E+00   0.938E-01 0.941E-01 0.858E-01
   0.627E+01 -.949E+01 0.222E+01   -.287E+02 0.137E+02 -.186E+01   0.572E-01 -.187E-01 0.209E-01   0.794E-02 -.288E+00 -.164E-01
   0.463E+01 -.762E+01 0.136E+01   0.113E+02 0.346E+02 -.352E+02   -.737E-01 0.117E+00 0.934E-01   -.244E+00 0.116E+00 -.267E-01
   -.141E+01 -.520E+01 0.366E+01   -.248E+02 -.350E+01 -.550E+01   -.942E-01 0.443E-01 -.984E-01   -.799E-01 0.209E+00 -.260E+00
   0.854E+01 -.108E+02 -.159E+01   -.255E+02 0.324E+02 0.115E+02   -.567E-01 -.840E-01 0.301E-01   0.961E-01 -.120E+00 0.140E+00
   -.613E+00 0.291E+00 0.449E+01   -.184E+02 -.397E+01 -.102E+02   0.926E-02 -.145E-01 0.299E-02   0.284E+00 -.276E-01 0.391E-01
   0.838E+01 0.353E+01 0.398E+01   -.114E+02 -.273E+02 -.234E+02   -.520E-02 -.429E-01 -.256E-01   -.331E+00 0.596E-01 -.173E+00
   -.482E+01 0.700E+00 0.610E+01   0.347E+02 0.572E+01 -.293E+02   0.796E-01 -.352E-01 -.217E-01   0.471E+00 -.140E-01 -.222E+00
   0.226E+01 0.751E+01 0.110E+01   0.496E+00 -.513E+01 -.215E+02   0.313E-01 -.235E-01 0.928E-01   -.491E-01 -.708E-01 0.280E+00
   -.341E+01 -.306E+01 0.351E+00   -.874E+01 -.560E+01 0.504E+01   0.563E-01 0.619E-01 -.650E-02   0.309E-01 0.225E+00 0.132E+00
   0.394E+01 0.189E+01 -.127E+02   -.812E+01 -.101E+02 0.430E+02   -.665E-01 0.132E-01 -.145E-01   -.296E-01 0.158E+00 0.224E+00
   0.969E+01 -.386E+01 0.183E+00   -.638E+00 0.410E+02 0.234E+02   0.716E-02 0.412E-01 -.327E-02   0.193E+00 0.234E-01 -.462E-01
   -.756E+01 -.229E+01 -.401E+01   0.223E+01 0.685E+01 0.653E+01   0.193E-01 0.520E-01 0.657E-01   -.129E+00 -.184E-01 -.638E-01
   0.735E+01 0.663E+01 0.241E+01   -.894E+01 -.118E+02 0.832E+00   -.540E-01 0.107E-01 -.310E-01   -.834E-01 0.156E+00 -.190E+00
   0.785E+01 -.863E+01 -.149E+01   -.179E+02 0.184E+02 -.454E+01   0.491E-01 0.310E-01 0.597E-01   0.109E+00 -.106E-01 0.860E-01
   -.186E+01 -.558E+01 -.485E+00   0.318E+02 0.154E+02 -.639E+01   -.160E-01 0.283E-01 0.216E-01   0.928E-01 0.240E+00 0.225E-01
   0.710E+00 0.214E+01 0.964E+00   0.197E+02 -.737E+01 0.750E+01   0.290E-01 0.402E-02 -.112E-01   0.117E+00 -.116E+00 -.118E+00
   -.289E+01 -.102E+02 0.852E+00   0.172E+02 0.473E+02 -.123E+01   -.846E-02 0.293E-01 0.362E-01   0.899E-01 0.114E+00 -.764E-01
   -.206E+00 -.803E+01 0.101E+01   0.975E+01 0.101E+02 -.112E+02   0.948E-01 0.136E-01 -.142E+00   0.436E-01 -.381E-01 -.174E+00
   0.659E+01 -.239E+00 0.227E+01   -.306E+02 -.351E+02 -.287E+02   -.451E-01 0.541E-01 0.773E-02   -.768E-02 0.209E+00 -.776E-01
   -.586E+01 0.349E+01 -.365E+01   0.872E+00 -.721E+01 0.152E+02   0.228E-01 0.211E-01 0.115E+00   -.260E+00 -.929E-01 0.796E-01
   0.321E+01 -.637E+00 -.674E+00   -.168E+02 0.890E+00 0.150E+02   -.635E-01 -.641E-02 -.139E-01   0.203E+00 0.174E+00 0.175E+00
   -.268E-01 0.421E+01 0.166E+01   -.172E+02 -.155E+02 -.196E+02   0.120E-01 -.397E-01 -.290E-01   -.182E-01 -.952E-01 0.952E-01
   -.585E+01 0.990E+01 -.111E+01   0.224E+02 -.332E+02 -.266E+02   -.112E+00 -.959E-01 -.399E-01   -.101E+00 0.430E-01 -.141E+00
   -.756E+01 0.204E+01 0.648E+00   0.744E+01 -.698E+01 -.226E+02   -.258E-01 -.198E-01 0.261E-01   0.143E+00 -.570E-01 0.832E-01
[...]
   -.483E+01 -.342E+01 0.532E+01   0.231E+02 0.157E+02 -.956E+01   0.292E-02 0.698E-02 -.266E-01   -.269E+00 0.354E-01 -.297E+00
   0.529E+01 -.303E+01 0.541E+01   -.426E+01 -.144E+02 -.105E+02   -.403E-01 0.520E-01 -.430E-01   0.121E+00 0.274E+00 -.138E-01
   0.315E+01 0.997E+01 0.114E+01   -.388E+02 -.273E+02 -.672E+01   -.133E+00 0.238E-01 0.527E-01   0.864E-01 0.206E+00 0.364E+00
   0.319E+01 -.426E+01 0.195E+01   -.153E+02 -.516E+01 0.140E+01   0.467E-01 -.173E-01 -.287E-01   -.425E-01 -.919E-01 -.470E-01
   0.495E+01 -.644E+01 -.129E+01   -.304E+02 0.941E+01 0.227E+02   0.450E+00 0.419E+00 0.330E+00   -.128E+00 0.197E+00 -.970E-01
   -.190E+01 -.269E+01 0.124E+01   -.116E+02 -.148E+02 0.703E+01   -.280E+00 -.532E-01 -.226E+00   0.431E+00 0.117E+00 0.342E-01
   -.296E+00 -.554E+01 -.156E+01   0.194E+02 0.114E+02 0.124E+02   -.502E-01 0.850E-01 0.117E+00   -.242E+00 -.272E+00 -.124E-01
   -.738E+01 -.958E+00 -.320E+01   0.125E+02 0.359E+01 0.187E+02   0.791E-02 0.723E-01 -.138E+00   0.687E-01 0.760E+00 -.159E+01
   0.101E+02 -.206E+01 -.182E+01   -.194E+02 0.172E+02 0.317E+02   0.356E+00 -.610E+00 0.647E+00   -.614E-01 0.198E+00 -.899E+00
   -.303E+01 0.118E+01 0.161E+01   0.128E+02 -.509E+01 -.466E+01   -.789E-02 0.418E-02 0.580E-02   0.274E-01 -.275E-01 -.408E-01
   0.107E+01 -.543E+00 -.694E+00   0.263E+02 0.950E+01 0.224E+01   -.200E-01 -.325E-02 -.900E-02   0.242E-01 -.618E-01 0.531E-01
   -.169E-01 0.465E+00 -.282E+00   0.189E+01 -.134E-01 0.192E+01   0.376E-03 -.144E-01 -.149E-01   0.727E-01 -.278E-01 0.146E-01
   -.221E+00 0.890E+00 -.957E+00   0.798E+01 -.424E+01 0.487E+01   0.128E-01 -.792E-03 -.267E-02   -.274E-01 0.405E-01 0.670E-01
   0.150E+01 0.208E+01 0.892E+00   -.813E+01 -.953E+01 -.597E+01   0.225E-01 0.827E-02 0.150E-01   0.123E-01 -.290E-02 0.811E-01
   0.919E+01 -.628E+00 0.494E+01   -.497E-13 -.266E-13 -.393E-12   -.984E+01 0.221E+01 -.164E+00   0.421E+00 0.336E+01 -.899E+00

 POSITION                                       TOTAL-FORCE (eV/Angst)
     30.28094     -1.17360     -1.45517       -13.440455     24.755036     39.813187
    -22.15750     14.29309     -1.46094        79.371408     51.510172     -6.756611
    -18.73252     12.00421      5.49176       -22.504584     33.117313     52.988591
    -17.38093      5.41410    -12.07069       -36.314747     -3.942632    -37.846483
     -2.06635     10.37538     -7.48973        11.211509    -12.111283     -4.201239
     -3.80146      4.85510      1.27343       -34.945910     -6.312426     28.030835
    -10.73834     17.54827     -7.40227        46.956108    -22.397877    -16.791644
     15.40696     17.72636      3.92827       -27.724062    -19.943919    -15.349244
     12.31650     -6.45213     14.99267       -34.003478     55.285912    -57.423913
    -13.96960      6.30123     -2.36119       135.379598     36.353541    109.843791
      3.22835     15.49918      2.99970         0.093926      4.088652     29.430912
     18.14790     17.24472     -4.76815       -24.048149      9.659490     32.016244
      7.87574      2.06326    -14.52411        22.675397      3.052716      8.323891
     19.99636      3.47321     -7.03945        49.312460     33.578292    -19.854502
     -2.72674     -3.19280      5.48595       -73.825570    -20.846952    -60.925323
     22.14061     -2.52723    -16.80444        41.941453     47.968108     81.028300
    -14.49809     -2.95568    -13.25856         1.091545    -11.106642      1.556523
     20.13877     20.97967      1.46069        10.392922     19.667860     89.179393
    -16.20642     -9.48620     -9.22480       -61.282567    -73.404414   -145.071512
      1.59000     19.09475     20.21743       -33.052592    -41.441764    -11.688784
      2.68719    -18.50422     19.85288       -54.085081     19.185364    -33.590687
     12.36258      7.42373     -4.46896       -23.841668     -4.628218     14.445605
     -3.68982      2.29997     -7.92643       -11.227431      7.906005     29.651217
      1.62467     -1.45248     -8.63042         6.570506     32.205474     -5.985427
      6.43460    -15.15170     -2.14061       -23.247390     12.029867    -11.556593
     26.27863     18.40864     10.59686        -9.273105     18.683012     -9.253686
     11.54992      6.90238      1.16039        22.468258      7.117292     25.379273
     -4.55797     13.47909     10.24252         5.907863    -36.501884     -3.100054
     -9.63948     15.24686      6.32621       -30.882936    -20.653533     -6.127959
      7.90827     -9.19790    -11.21913        22.535967    -37.400326    -43.262850
     20.89125     11.27370     -5.21350        60.703141    -12.729712     16.772969
     15.68028      9.27666     13.75089         7.213416     -0.417761    -33.841846
     -7.09757    -13.01788    -18.41625       -10.632731    -44.444251    -29.151167
     -1.38089      7.37650      9.34788       -14.786393     12.613475      0.030065
    -15.67123      1.91989     20.65553        -0.421275      4.588016     20.828232
     -8.39962     19.31077     -1.30849        11.068395    -19.509211    -17.185544
    -18.60249     20.82735     -0.67455       -22.384219      3.845002      0.314158
     14.12484     23.74245      3.91222        15.591364     27.107005    -33.834163
     -0.06790      3.87623      7.57678       -26.376997     -8.509044     -2.249346
    -15.61277     -2.55167     13.41785       -16.921476     21.353929     10.031165
    -28.90447      0.02892      8.19298       -18.676371     -3.788312     -5.766752
      7.96905     12.41749     -6.97175        -3.376651    -23.850611    -19.625469
     17.44974      4.35635      6.32948        30.420456      6.310929    -23.466891
      9.81179      2.62681    -18.71046         2.741716      2.222778    -20.040755
     -5.80167     -2.12607     15.18623       -12.051143     -8.434816      5.468880
      2.09438      5.45522      1.97764        -4.266186     -8.069785     30.489941
      4.45948      5.00776      8.33503         9.253088     37.140043     23.467829
     29.39191      9.53794      2.27860        -5.436990      4.524741      2.472474
     27.16658     -4.00051     -0.15801        -1.733753     -5.103694      2.973876
     15.75528     23.59059     -3.84660        -9.861327      9.734889     -5.941930
     20.19073     -0.12436     12.04075        30.060092     10.073871     -6.878142
      4.31412     17.86650     -8.02881        20.587208     -5.414826      8.283573
     23.73102      2.00297    -14.63899        14.380244     37.179796     -0.469742
      6.81443     -6.01528     -2.60707         9.688421      1.961661    -10.507331
      3.61189     14.29930    -11.43291       -24.047079    -35.183029    -26.537472
     -1.34206     14.59038      4.80020        -5.226925     -3.851413     11.671659
     27.99433      7.22891     17.91974       -13.465856      0.355726     14.476910
     29.86406     14.80152     -0.55891       -17.223729    -11.471655    -17.963355
      3.06345      2.54766     -2.67978        16.329393    -23.392461    -27.915114
     -7.74295      7.74150     14.29180         0.006201     -5.079106    -21.932155
     16.72727    -11.07946     20.23081         5.163478    -23.798741     32.809272
     16.88886    -14.99163      6.30214        43.396168    -13.814198     -0.652653
      3.80444    -20.87670     -8.02379        17.999025     12.292015     -4.623134
      5.55003     -3.58568      8.30652         1.107859    -17.182957     -5.152405
      1.61693     -5.27522     -8.22016       -35.667119    -17.155958     -5.220812
     10.37453     20.17850      8.15239       -12.144736     -9.592589      3.224243
    -19.74083     -1.85037    -15.83476       -25.151423      3.512337     21.639952
      2.31302     13.93602     15.08855       -13.354252    -17.453337      8.027885
      7.38447     -3.05417      0.36878        18.787019      5.578157     10.935982
      4.00820     -0.47239      0.26823         5.205597      3.396288     13.680849
      4.59528      8.48137      4.43723        -9.001895     14.703829     29.568753
     24.30708     -4.16590      3.53707         9.829285     -4.000103     -3.143361
      6.25565      8.91921      4.24284        27.351778      8.825721      1.540241
     12.24336     11.64745      1.11644         1.950999      0.344238      1.591332
     19.21798      1.72940     18.58253         7.751478     -3.372779      3.925983
     11.34499      4.90150     14.72055        -6.586491     -7.516333     -5.027934
    total drift:                               -0.230524      4.943785      3.876516
 d Force = 0.1897023E+03[ 0.150E+03, 0.229E+03]  d Energy = 0.8390088E+02 0.106E+03
 d Force = 0.2545354E+03[ 0.201E+03, 0.308E+03]  d Ewald  = 0.2517329E+03 0.280E+01

 writing wavefunctions